Welcome to the CBC MILP Solver 
Version: Trunk
Build Date: Apr 16 2020 

Starting solution of the Linear programming relaxation problem using Primal Simplex

Using Python-MIP package version 1.8.1
Machines:  3 Jobs:  3
Order: 
Job  0 : machine 1 ( 7 ) machine 2 ( 7 ) machine 0 ( 1 ) 
Job  1 : machine 1 ( 4 ) machine 0 ( 3 ) machine 2 ( 7 ) 
Job  2 : machine 1 ( 7 ) machine 2 ( 6 ) machine 0 ( 2 ) 
K:  33
Job  0 , e: machine  0 ( 14 ) machine  1 ( 0 ) machine  2 ( 7 ) 
Job  1 , e: machine  0 ( 4 ) machine  1 ( 0 ) machine  2 ( 7 ) 
Job  2 , e: machine  0 ( 13 ) machine  1 ( 0 ) machine  2 ( 7 ) 
Job  0 , f: machine  0 ( 0 ) machine  1 ( 8 ) machine  2 ( 1 ) 
Job  1 , f: machine  0 ( 7 ) machine  1 ( 10 ) machine  2 ( 0 ) 
Job  2 , f: machine  0 ( 0 ) machine  1 ( 8 ) machine  2 ( 2 ) 
EST and LST:
Job: 0 Machine: 0 EST: 14 LST: 32
Job: 0 Machine: 1 EST: 0 LST: 18
Job: 0 Machine: 2 EST: 7 LST: 25
Job: 1 Machine: 0 EST: 4 LST: 23
Job: 1 Machine: 1 EST: 0 LST: 19
Job: 1 Machine: 2 EST: 7 LST: 26
Job: 2 Machine: 0 EST: 13 LST: 31
Job: 2 Machine: 1 EST: 0 LST: 18
Job: 2 Machine: 2 EST: 7 LST: 25
Order:
Job: 0 Machine: 0 = 2 
Job: 0 Machine: 1 = 0 
Job: 0 Machine: 2 = 1 
Job: 1 Machine: 0 = 1 
Job: 1 Machine: 1 = 0 
Job: 1 Machine: 2 = 2 
Job: 2 Machine: 0 = 2 
Job: 2 Machine: 1 = 0 
Job: 2 Machine: 2 = 1 
Distances:
Job 0, Machine 1 -> Machine 2: distance 7
Job 0, Machine 1 -> Machine 0: distance 14
Job 0, Machine 2 -> Machine 0: distance 7
Job 1, Machine 1 -> Machine 0: distance 4
Job 1, Machine 1 -> Machine 2: distance 7
Job 1, Machine 0 -> Machine 2: distance 3
Job 2, Machine 1 -> Machine 2: distance 7
Job 2, Machine 1 -> Machine 0: distance 13
Job 2, Machine 2 -> Machine 0: distance 6
McCormic linearization
[(0, 1), (1, 2), (0, 2), (2, 1), (2, 0), (2, 2), (1, 0), (1, 1)]
obj:  0.0
solutions:  1
+ 0.14285714285714285x(0,1) + 0.14285714285714285x(2,1) 
C:  18.499999999999996
x(0,0) = 17.50	 x(0,1) = 3.50	 x(0,2) = 10.50	 
x(1,0) = 8.50	 x(1,1) = 4.50	 x(1,2) = 11.50	 
x(2,0) = 16.50	 x(2,1) = 3.50	 x(2,2) = 10.50	 
y(0,1,0) = 0.00	 y(1,0,0) = 1.00	 
y(0,2,0) = 0.90	 y(2,0,0) = 0.10	 
y(1,2,0) = 0.59	 y(2,1,0) = 0.41	 
y(0,1,1) = 0.22	 y(1,0,1) = 0.78	 
y(0,2,1) = 0.72	 y(2,0,1) = 0.28	 
y(1,2,1) = 0.36	 y(2,1,1) = 0.64	 
y(0,1,2) = 0.76	 y(1,0,2) = 0.24	 
y(0,2,2) = 0.42	 y(2,0,2) = 0.58	 
y(1,2,2) = 0.50	 y(2,1,2) = 0.50	 
obj:  0.638095238095238
solutions:  1
+ 0.06666666666666665x(0,1) + 0.06666666666666667x(2,1) + 0.03809523809523811x(1,1) 
[(1, 2), (0, 1), (2, 1), (2, 0), (1, 1), (2, 2), (1, 0), (0, 2)]
cliques:  1 mip: 10
C:  22.0
x(0,0) = 17.83	 x(0,1) = 3.83	 x(0,2) = 10.83	 
x(1,0) = 11.29	 x(1,1) = 7.29	 x(1,2) = 15.00	 
x(2,0) = 20.00	 x(2,1) = 7.00	 x(2,2) = 14.00	 
y(0,1,0) = 0.00	 y(1,0,0) = 1.00	 
y(0,2,0) = 0.93	 y(2,0,0) = 0.07	 
y(1,2,0) = 0.46	 y(2,1,0) = 0.54	 
y(0,1,1) = 0.86	 y(1,0,1) = 0.14	 
y(0,2,1) = 0.45	 y(2,0,1) = 0.55	 
y(1,2,1) = 0.27	 y(2,1,1) = 0.73	 
y(0,1,2) = 0.53	 y(1,0,2) = 0.47	 
y(0,2,2) = 0.38	 y(2,0,2) = 0.62	 
y(1,2,2) = 0.69	 y(2,1,2) = 0.31	 
obj:  0.9700854700854704
solutions:  1
+ 0.025641025641025675x(1,2) + 0.021978021978021962x(2,2) + 0.02564102564102565x(0,2) 
[(1, 2), (0, 1), (2, 1), (2, 0), (1, 1), (2, 2), (1, 0), (0, 2)]
cliques:  1 mip: 28
C:  22.752500000000005
x(0,0) = 20.10	 x(0,1) = 5.89	 x(0,2) = 13.10	 
x(1,0) = 10.25	 x(1,1) = 6.25	 x(1,2) = 13.25	 
x(2,0) = 20.75	 x(2,1) = 5.53	 x(2,2) = 14.75	 
y(0,1,0) = 0.00	 y(1,0,0) = 1.00	 
y(0,2,0) = 0.82	 y(2,0,0) = 0.18	 
y(1,2,0) = 0.75	 y(2,1,0) = 0.25	 
y(0,1,1) = 0.73	 y(1,0,1) = 0.27	 
y(0,2,1) = 0.27	 y(2,0,1) = 0.73	 
y(1,2,1) = 0.68	 y(2,1,1) = 0.32	 
y(0,1,2) = 0.27	 y(1,0,2) = 0.73	 
y(0,2,2) = 0.59	 y(2,0,2) = 0.41	 
y(1,2,2) = 0.31	 y(2,1,2) = 0.69	 
obj:  0.9999999999999997
erro
[(1, 2), (0, 1), (0, 2), (2, 1), (2, 0), (2, 2), (1, 0), (1, 1)]
cliques:  0 mip: 40
C:  24.183542980213833
x(0,0) = 22.56	 x(0,1) = 4.61	 x(0,2) = 15.56	 
x(1,0) = 7.02	 x(1,1) = 3.02	 x(1,2) = 10.02	 
x(2,0) = 22.18	 x(2,1) = 8.66	 x(2,2) = 15.66	 
y(0,1,0) = 0.00	 y(1,0,0) = 1.00	 
y(0,2,0) = 0.31	 y(2,0,0) = 0.69	 
y(1,2,0) = 0.73	 y(2,1,0) = 0.27	 
y(0,1,1) = 0.51	 y(1,0,1) = 0.49	 
y(0,2,1) = 0.65	 y(2,0,1) = 0.35	 
y(1,2,1) = 0.70	 y(2,1,1) = 0.30	 
y(0,1,2) = 0.10	 y(1,0,2) = 0.90	 
y(0,2,2) = 0.72	 y(2,0,2) = 0.28	 
y(1,2,2) = 0.90	 y(2,1,2) = 0.10	 
obj:  0.9999999999999998
erro
[(0, 1), (1, 2), (0, 0), (0, 2), (2, 1), (2, 0), (2, 2), (1, 0), (1, 1)]
cliques:  0 mip: 41
C:  24.999995054019895
x(0,0) = 22.00	 x(0,1) = 7.28	 x(0,2) = 15.00	 
x(1,0) = 6.43	 x(1,1) = 2.43	 x(1,2) = 9.43	 
x(2,0) = 23.00	 x(2,1) = 10.00	 x(2,2) = 17.00	 
y(0,1,0) = 0.00	 y(1,0,0) = 1.00	 
y(0,2,0) = 1.00	 y(2,0,0) = 0.00	 
y(1,2,0) = 0.78	 y(2,1,0) = 0.22	 
y(0,1,1) = 0.35	 y(1,0,1) = 0.65	 
y(0,2,1) = 0.39	 y(2,0,1) = 0.61	 
y(1,2,1) = 0.69	 y(2,1,1) = 0.31	 
y(0,1,2) = 0.05	 y(1,0,2) = 0.95	 
y(0,2,2) = 0.35	 y(2,0,2) = 0.65	 
y(1,2,2) = 1.00	 y(2,1,2) = -0.00	 
obj:  0.9999999999999998
erro
[(0, 1), (1, 2), (0, 0), (0, 2), (2, 1), (2, 0), (2, 2), (1, 0), (1, 1)]
cliques:  0 mip: 34
C:  25.0090580675178
x(0,0) = 24.01	 x(0,1) = 8.61	 x(0,2) = 15.61	 
x(1,0) = 9.66	 x(1,1) = 5.66	 x(1,2) = 14.69	 
x(2,0) = 16.16	 x(2,1) = 3.16	 x(2,2) = 10.16	 
y(0,1,0) = 0.00	 y(1,0,0) = 1.00	 
y(0,2,0) = 0.00	 y(2,0,0) = 1.00	 
y(1,2,0) = 0.49	 y(2,1,0) = 0.51	 
y(0,1,1) = 0.36	 y(1,0,1) = 0.64	 
y(0,2,1) = 0.20	 y(2,0,1) = 0.80	 
y(1,2,1) = 0.19	 y(2,1,1) = 0.81	 
y(0,1,2) = 0.23	 y(1,0,2) = 0.77	 
y(0,2,2) = 0.02	 y(2,0,2) = 0.98	 
y(1,2,2) = 0.06	 y(2,1,2) = 0.94	 
obj:  0.9999999999999993
erro
[(0, 1), (1, 2), (0, 2), (2, 1), (2, 0), (2, 2), (1, 0), (1, 1)]
cliques:  0 mip: 39
C:  25.162418373708828
x(0,0) = 24.16	 x(0,1) = 6.51	 x(0,2) = 16.91	 
x(1,0) = 7.55	 x(1,1) = 3.55	 x(1,2) = 10.55	 
x(2,0) = 19.45	 x(2,1) = 6.45	 x(2,2) = 13.45	 
y(0,1,0) = 0.00	 y(1,0,0) = 1.00	 
y(0,2,0) = 0.00	 y(2,0,0) = 1.00	 
y(1,2,0) = 0.68	 y(2,1,0) = 0.32	 
y(0,1,1) = 0.60	 y(1,0,1) = 0.40	 
y(0,2,1) = 0.52	 y(2,0,1) = 0.48	 
y(1,2,1) = 0.49	 y(2,1,1) = 0.51	 
y(0,1,2) = 0.04	 y(1,0,2) = 0.96	 
y(0,2,2) = 0.11	 y(2,0,2) = 0.89	 
y(1,2,2) = 0.84	 y(2,1,2) = 0.16	 
obj:  1.0000000000000004
erro
[(0, 1), (1, 2), (0, 2), (2, 1), (2, 0), (2, 2), (1, 0), (1, 1)]
cliques:  0 mip: 43
C:  25.999992287744817
x(0,0) = 25.00	 x(0,1) = 9.38	 x(0,2) = 16.38	 
x(1,0) = 13.41	 x(1,1) = 9.41	 x(1,2) = 16.41	 
x(2,0) = 16.41	 x(2,1) = 0.24	 x(2,2) = 7.24	 
y(0,1,0) = 0.00	 y(1,0,0) = 1.00	 
y(0,2,0) = 0.00	 y(2,0,0) = 1.00	 
y(1,2,0) = 1.00	 y(2,1,0) = 0.00	 
y(0,1,1) = 0.72	 y(1,0,1) = 0.28	 
y(0,2,1) = 0.00	 y(2,0,1) = 1.00	 
y(1,2,1) = 0.00	 y(2,1,1) = 1.00	 
y(0,1,2) = 0.27	 y(1,0,2) = 0.73	 
y(0,2,2) = 0.31	 y(2,0,2) = 0.69	 
y(1,2,2) = 0.32	 y(2,1,2) = 0.68	 
obj:  0.9999999999999993
erro
[(1, 2), (0, 1), (0, 0), (0, 2), (2, 1), (2, 0), (2, 2), (1, 0), (1, 1)]
cliques:  0 mip: 28
C:  25.999992287744835
x(0,0) = 25.00	 x(0,1) = 9.38	 x(0,2) = 16.38	 
x(1,0) = 13.40	 x(1,1) = 9.40	 x(1,2) = 16.40	 
x(2,0) = 16.40	 x(2,1) = 0.25	 x(2,2) = 9.44	 
y(0,1,0) = 0.00	 y(1,0,0) = 1.00	 
y(0,2,0) = 0.00	 y(2,0,0) = 1.00	 
y(1,2,0) = 1.00	 y(2,1,0) = 0.00	 
y(0,1,1) = 0.72	 y(1,0,1) = 0.28	 
y(0,2,1) = 0.23	 y(2,0,1) = 0.77	 
y(1,2,1) = 0.00	 y(2,1,1) = 1.00	 
y(0,1,2) = 0.27	 y(1,0,2) = 0.73	 
y(0,2,2) = 0.19	 y(2,0,2) = 0.81	 
y(1,2,2) = 0.33	 y(2,1,2) = 0.67	 
obj:  1.0
erro
[(1, 2), (0, 1), (0, 0), (2, 1), (2, 0), (1, 1), (2, 2), (1, 0), (0, 2)]
cliques:  0 mip: 29
C:  25.999992287744842
x(0,0) = 25.00	 x(0,1) = 6.59	 x(0,2) = 13.59	 
x(1,0) = 11.11	 x(1,1) = 7.11	 x(1,2) = 14.11	 
x(2,0) = 20.55	 x(2,1) = 4.35	 x(2,2) = 14.55	 
y(0,1,0) = 0.00	 y(1,0,0) = 1.00	 
y(0,2,0) = 0.00	 y(2,0,0) = 1.00	 
y(1,2,0) = 1.00	 y(2,1,0) = 0.00	 
y(0,1,1) = 0.74	 y(1,0,1) = 0.26	 
y(0,2,1) = 0.63	 y(2,0,1) = 0.37	 
y(1,2,1) = 0.44	 y(2,1,1) = 0.56	 
y(0,1,2) = 0.29	 y(1,0,2) = 0.71	 
y(0,2,2) = 0.49	 y(2,0,2) = 0.51	 
y(1,2,2) = 0.31	 y(2,1,2) = 0.69	 
obj:  1.0
erro
[(0, 1), (1, 2), (0, 0), (0, 2), (2, 1), (2, 2), (1, 0), (1, 1)]
cliques:  0 mip: 40
C:  25.999992287744835
x(0,0) = 25.00	 x(0,1) = 8.87	 x(0,2) = 16.33	 
x(1,0) = 13.53	 x(1,1) = 6.60	 x(1,2) = 16.53	 
x(2,0) = 23.00	 x(2,1) = 2.36	 x(2,2) = 9.36	 
y(0,1,0) = 0.00	 y(1,0,0) = 1.00	 
y(0,2,0) = 0.00	 y(2,0,0) = 1.00	 
y(1,2,0) = 1.00	 y(2,1,0) = 0.00	 
y(0,1,1) = 0.63	 y(1,0,1) = 0.37	 
y(0,2,1) = 0.30	 y(2,0,1) = 0.70	 
y(1,2,1) = 0.40	 y(2,1,1) = 0.60	 
y(0,1,2) = 0.28	 y(1,0,2) = 0.72	 
y(0,2,2) = 0.18	 y(2,0,2) = 0.82	 
y(1,2,2) = 0.10	 y(2,1,2) = 0.90	 
obj:  1.0000000000000002
erro
[(0, 1), (1, 2), (0, 0), (2, 1), (1, 1), (2, 2), (1, 0), (0, 2)]
cliques:  0 mip: 40
C:  25.999992287744845
x(0,0) = 25.00	 x(0,1) = 8.64	 x(0,2) = 16.71	 
x(1,0) = 12.29	 x(1,1) = 8.29	 x(1,2) = 15.29	 
x(2,0) = 23.00	 x(2,1) = 2.77	 x(2,2) = 11.03	 
y(0,1,0) = 0.00	 y(1,0,0) = 1.00	 
y(0,2,0) = 0.00	 y(2,0,0) = 1.00	 
y(1,2,0) = 1.00	 y(2,1,0) = 0.00	 
y(0,1,1) = 0.71	 y(1,0,1) = 0.29	 
y(0,2,1) = 0.34	 y(2,0,1) = 0.66	 
y(1,2,1) = 0.36	 y(2,1,1) = 0.64	 
y(0,1,2) = 0.21	 y(1,0,2) = 0.79	 
y(0,2,2) = 0.18	 y(2,0,2) = 0.82	 
y(1,2,2) = 0.15	 y(2,1,2) = 0.85	 
obj:  1.063087179446433
erro
[(0, 1), (1, 2), (0, 0), (2, 1), (1, 1), (2, 2), (1, 0), (0, 2)]
cliques:  0 mip: 41
C:  25.999992287744842
x(0,0) = 25.00	 x(0,1) = 7.89	 x(0,2) = 14.89	 
x(1,0) = 14.28	 x(1,1) = 10.28	 x(1,2) = 17.28	 
x(2,0) = 23.00	 x(2,1) = 1.23	 x(2,2) = 9.66	 
y(0,1,0) = 0.00	 y(1,0,0) = 1.00	 
y(0,2,0) = 0.00	 y(2,0,0) = 1.00	 
y(1,2,0) = 1.00	 y(2,1,0) = 0.00	 
y(0,1,1) = 0.82	 y(1,0,1) = 0.18	 
y(0,2,1) = 0.36	 y(2,0,1) = 0.64	 
y(1,2,1) = 0.27	 y(2,1,1) = 0.73	 
y(0,1,2) = 0.52	 y(1,0,2) = 0.48	 
y(0,2,2) = 0.07	 y(2,0,2) = 0.93	 
y(1,2,2) = 0.03	 y(2,1,2) = 0.97	 
obj:  1.0
erro
[(1, 2), (0, 1), (0, 0), (0, 2), (2, 1), (2, 2), (1, 0), (1, 1)]
cliques:  0 mip: 35
C:  25.999992287744842
x(0,0) = 25.00	 x(0,1) = 6.94	 x(0,2) = 13.94	 
x(1,0) = 13.66	 x(1,1) = 9.66	 x(1,2) = 16.66	 
x(2,0) = 23.00	 x(2,1) = 2.54	 x(2,2) = 11.40	 
y(0,1,0) = 0.00	 y(1,0,0) = 1.00	 
y(0,2,0) = 0.00	 y(2,0,0) = 1.00	 
y(1,2,0) = 1.00	 y(2,1,0) = 0.00	 
y(0,1,1) = 0.83	 y(1,0,1) = 0.17	 
y(0,2,1) = 0.38	 y(2,0,1) = 0.62	 
y(1,2,1) = 0.32	 y(2,1,1) = 0.68	 
y(0,1,2) = 0.43	 y(1,0,2) = 0.57	 
y(0,2,2) = 0.19	 y(2,0,2) = 0.81	 
y(1,2,2) = 0.07	 y(2,1,2) = 0.93	 
obj:  1.0
erro
[(1, 2), (0, 1), (0, 0), (0, 2), (2, 1), (2, 2), (1, 0), (1, 1)]
cliques:  0 mip: 37
C:  25.999992287744842
x(0,0) = 25.00	 x(0,1) = 6.94	 x(0,2) = 13.94	 
x(1,0) = 13.66	 x(1,1) = 9.66	 x(1,2) = 16.66	 
x(2,0) = 23.00	 x(2,1) = 2.54	 x(2,2) = 11.40	 
y(0,1,0) = 0.00	 y(1,0,0) = 1.00	 
y(0,2,0) = 0.00	 y(2,0,0) = 1.00	 
y(1,2,0) = 1.00	 y(2,1,0) = 0.00	 
y(0,1,1) = 0.83	 y(1,0,1) = 0.17	 
y(0,2,1) = 0.38	 y(2,0,1) = 0.62	 
y(1,2,1) = 0.32	 y(2,1,1) = 0.68	 
y(0,1,2) = 0.43	 y(1,0,2) = 0.57	 
y(0,2,2) = 0.19	 y(2,0,2) = 0.81	 
y(1,2,2) = 0.07	 y(2,1,2) = 0.93	 
obj:  1.0
erro
[(1, 2), (0, 1), (0, 0), (0, 2), (2, 1), (2, 2), (1, 0), (1, 1)]
cliques:  0 mip: 37
C:  25.999992287744842
x(0,0) = 25.00	 x(0,1) = 6.94	 x(0,2) = 13.94	 
x(1,0) = 13.66	 x(1,1) = 9.66	 x(1,2) = 16.66	 
x(2,0) = 23.00	 x(2,1) = 2.54	 x(2,2) = 11.40	 
y(0,1,0) = 0.00	 y(1,0,0) = 1.00	 
y(0,2,0) = 0.00	 y(2,0,0) = 1.00	 
y(1,2,0) = 1.00	 y(2,1,0) = 0.00	 
y(0,1,1) = 0.83	 y(1,0,1) = 0.17	 
y(0,2,1) = 0.38	 y(2,0,1) = 0.62	 
y(1,2,1) = 0.32	 y(2,1,1) = 0.68	 
y(0,1,2) = 0.43	 y(1,0,2) = 0.57	 
y(0,2,2) = 0.19	 y(2,0,2) = 0.81	 
y(1,2,2) = 0.07	 y(2,1,2) = 0.93	 
obj:  1.0
erro
[(1, 2), (0, 1), (0, 0), (0, 2), (2, 1), (2, 2), (1, 0), (1, 1)]
cliques:  0 mip: 37
C:  25.999992287744842
x(0,0) = 25.00	 x(0,1) = 6.94	 x(0,2) = 13.94	 
x(1,0) = 13.66	 x(1,1) = 9.66	 x(1,2) = 16.66	 
x(2,0) = 23.00	 x(2,1) = 2.54	 x(2,2) = 11.40	 
y(0,1,0) = 0.00	 y(1,0,0) = 1.00	 
y(0,2,0) = 0.00	 y(2,0,0) = 1.00	 
y(1,2,0) = 1.00	 y(2,1,0) = 0.00	 
y(0,1,1) = 0.83	 y(1,0,1) = 0.17	 
y(0,2,1) = 0.38	 y(2,0,1) = 0.62	 
y(1,2,1) = 0.32	 y(2,1,1) = 0.68	 
y(0,1,2) = 0.43	 y(1,0,2) = 0.57	 
y(0,2,2) = 0.19	 y(2,0,2) = 0.81	 
y(1,2,2) = 0.07	 y(2,1,2) = 0.93	 
obj:  1.0
erro
[(1, 2), (0, 1), (0, 0), (0, 2), (2, 1), (2, 2), (1, 0), (1, 1)]
cliques:  0 mip: 37
C:  25.999992287744842
x(0,0) = 25.00	 x(0,1) = 6.94	 x(0,2) = 13.94	 
x(1,0) = 13.66	 x(1,1) = 9.66	 x(1,2) = 16.66	 
x(2,0) = 23.00	 x(2,1) = 2.54	 x(2,2) = 11.40	 
y(0,1,0) = 0.00	 y(1,0,0) = 1.00	 
y(0,2,0) = 0.00	 y(2,0,0) = 1.00	 
y(1,2,0) = 1.00	 y(2,1,0) = 0.00	 
y(0,1,1) = 0.83	 y(1,0,1) = 0.17	 
y(0,2,1) = 0.38	 y(2,0,1) = 0.62	 
y(1,2,1) = 0.32	 y(2,1,1) = 0.68	 
y(0,1,2) = 0.43	 y(1,0,2) = 0.57	 
y(0,2,2) = 0.19	 y(2,0,2) = 0.81	 
y(1,2,2) = 0.07	 y(2,1,2) = 0.93	 
obj:  1.0
erro
[(1, 2), (0, 1), (0, 0), (0, 2), (2, 1), (2, 2), (1, 0), (1, 1)]
cliques:  0 mip: 37
C:  25.999992287744842
x(0,0) = 25.00	 x(0,1) = 6.94	 x(0,2) = 13.94	 
x(1,0) = 13.66	 x(1,1) = 9.66	 x(1,2) = 16.66	 
x(2,0) = 23.00	 x(2,1) = 2.54	 x(2,2) = 11.40	 
y(0,1,0) = 0.00	 y(1,0,0) = 1.00	 
y(0,2,0) = 0.00	 y(2,0,0) = 1.00	 
y(1,2,0) = 1.00	 y(2,1,0) = 0.00	 
y(0,1,1) = 0.83	 y(1,0,1) = 0.17	 
y(0,2,1) = 0.38	 y(2,0,1) = 0.62	 
y(1,2,1) = 0.32	 y(2,1,1) = 0.68	 
y(0,1,2) = 0.43	 y(1,0,2) = 0.57	 
y(0,2,2) = 0.19	 y(2,0,2) = 0.81	 
y(1,2,2) = 0.07	 y(2,1,2) = 0.93	 
obj:  1.0
erro
[(1, 2), (0, 1), (0, 0), (0, 2), (2, 1), (2, 2), (1, 0), (1, 1)]
cliques:  0 mip: 37
C:  25.999992287744842
x(0,0) = 25.00	 x(0,1) = 6.94	 x(0,2) = 13.94	 
x(1,0) = 13.66	 x(1,1) = 9.66	 x(1,2) = 16.66	 
x(2,0) = 23.00	 x(2,1) = 2.54	 x(2,2) = 11.40	 
y(0,1,0) = 0.00	 y(1,0,0) = 1.00	 
y(0,2,0) = 0.00	 y(2,0,0) = 1.00	 
y(1,2,0) = 1.00	 y(2,1,0) = 0.00	 
y(0,1,1) = 0.83	 y(1,0,1) = 0.17	 
y(0,2,1) = 0.38	 y(2,0,1) = 0.62	 
y(1,2,1) = 0.32	 y(2,1,1) = 0.68	 
y(0,1,2) = 0.43	 y(1,0,2) = 0.57	 
y(0,2,2) = 0.19	 y(2,0,2) = 0.81	 
y(1,2,2) = 0.07	 y(2,1,2) = 0.93	 
obj:  1.0
erro
[(1, 2), (0, 1), (0, 0), (0, 2), (2, 1), (2, 2), (1, 0), (1, 1)]
cliques:  0 mip: 37
C:  25.999992287744842
x(0,0) = 25.00	 x(0,1) = 6.94	 x(0,2) = 13.94	 
x(1,0) = 13.66	 x(1,1) = 9.66	 x(1,2) = 16.66	 
x(2,0) = 23.00	 x(2,1) = 2.54	 x(2,2) = 11.40	 
y(0,1,0) = 0.00	 y(1,0,0) = 1.00	 
y(0,2,0) = 0.00	 y(2,0,0) = 1.00	 
y(1,2,0) = 1.00	 y(2,1,0) = 0.00	 
y(0,1,1) = 0.83	 y(1,0,1) = 0.17	 
y(0,2,1) = 0.38	 y(2,0,1) = 0.62	 
y(1,2,1) = 0.32	 y(2,1,1) = 0.68	 
y(0,1,2) = 0.43	 y(1,0,2) = 0.57	 
y(0,2,2) = 0.19	 y(2,0,2) = 0.81	 
y(1,2,2) = 0.07	 y(2,1,2) = 0.93	 
obj:  1.0
erro
[(1, 2), (0, 1), (0, 0), (0, 2), (2, 1), (2, 2), (1, 0), (1, 1)]
cliques:  0 mip: 37
C:  25.999992287744842
x(0,0) = 25.00	 x(0,1) = 6.94	 x(0,2) = 13.94	 
x(1,0) = 13.66	 x(1,1) = 9.66	 x(1,2) = 16.66	 
x(2,0) = 23.00	 x(2,1) = 2.54	 x(2,2) = 11.40	 
y(0,1,0) = 0.00	 y(1,0,0) = 1.00	 
y(0,2,0) = 0.00	 y(2,0,0) = 1.00	 
y(1,2,0) = 1.00	 y(2,1,0) = 0.00	 
y(0,1,1) = 0.83	 y(1,0,1) = 0.17	 
y(0,2,1) = 0.38	 y(2,0,1) = 0.62	 
y(1,2,1) = 0.32	 y(2,1,1) = 0.68	 
y(0,1,2) = 0.43	 y(1,0,2) = 0.57	 
y(0,2,2) = 0.19	 y(2,0,2) = 0.81	 
y(1,2,2) = 0.07	 y(2,1,2) = 0.93	 
obj:  1.0
erro
[(1, 2), (0, 1), (0, 0), (0, 2), (2, 1), (2, 2), (1, 0), (1, 1)]
cliques:  0 mip: 37
C:  25.999992287744842
x(0,0) = 25.00	 x(0,1) = 6.94	 x(0,2) = 13.94	 
x(1,0) = 13.66	 x(1,1) = 9.66	 x(1,2) = 16.66	 
x(2,0) = 23.00	 x(2,1) = 2.54	 x(2,2) = 11.40	 
y(0,1,0) = 0.00	 y(1,0,0) = 1.00	 
y(0,2,0) = 0.00	 y(2,0,0) = 1.00	 
y(1,2,0) = 1.00	 y(2,1,0) = 0.00	 
y(0,1,1) = 0.83	 y(1,0,1) = 0.17	 
y(0,2,1) = 0.38	 y(2,0,1) = 0.62	 
y(1,2,1) = 0.32	 y(2,1,1) = 0.68	 
y(0,1,2) = 0.43	 y(1,0,2) = 0.57	 
y(0,2,2) = 0.19	 y(2,0,2) = 0.81	 
y(1,2,2) = 0.07	 y(2,1,2) = 0.93	 
obj:  1.0
erro
[(1, 2), (0, 1), (0, 0), (0, 2), (2, 1), (2, 2), (1, 0), (1, 1)]
cliques:  0 mip: 37
C:  25.999992287744842
x(0,0) = 25.00	 x(0,1) = 6.94	 x(0,2) = 13.94	 
x(1,0) = 13.66	 x(1,1) = 9.66	 x(1,2) = 16.66	 
x(2,0) = 23.00	 x(2,1) = 2.54	 x(2,2) = 11.40	 
y(0,1,0) = 0.00	 y(1,0,0) = 1.00	 
y(0,2,0) = 0.00	 y(2,0,0) = 1.00	 
y(1,2,0) = 1.00	 y(2,1,0) = 0.00	 
y(0,1,1) = 0.83	 y(1,0,1) = 0.17	 
y(0,2,1) = 0.38	 y(2,0,1) = 0.62	 
y(1,2,1) = 0.32	 y(2,1,1) = 0.68	 
y(0,1,2) = 0.43	 y(1,0,2) = 0.57	 
y(0,2,2) = 0.19	 y(2,0,2) = 0.81	 
y(1,2,2) = 0.07	 y(2,1,2) = 0.93	 
obj:  1.0
erro
[(1, 2), (0, 1), (0, 0), (0, 2), (2, 1), (2, 2), (1, 0), (1, 1)]
cliques:  0 mip: 37
C:  25.999992287744842
x(0,0) = 25.00	 x(0,1) = 6.94	 x(0,2) = 13.94	 
x(1,0) = 13.66	 x(1,1) = 9.66	 x(1,2) = 16.66	 
x(2,0) = 23.00	 x(2,1) = 2.54	 x(2,2) = 11.40	 
y(0,1,0) = 0.00	 y(1,0,0) = 1.00	 
y(0,2,0) = 0.00	 y(2,0,0) = 1.00	 
y(1,2,0) = 1.00	 y(2,1,0) = 0.00	 
y(0,1,1) = 0.83	 y(1,0,1) = 0.17	 
y(0,2,1) = 0.38	 y(2,0,1) = 0.62	 
y(1,2,1) = 0.32	 y(2,1,1) = 0.68	 
y(0,1,2) = 0.43	 y(1,0,2) = 0.57	 
y(0,2,2) = 0.19	 y(2,0,2) = 0.81	 
y(1,2,2) = 0.07	 y(2,1,2) = 0.93	 
obj:  1.0
erro
[(1, 2), (0, 1), (0, 0), (0, 2), (2, 1), (2, 2), (1, 0), (1, 1)]
cliques:  0 mip: 37
C:  25.999992287744842
x(0,0) = 25.00	 x(0,1) = 6.94	 x(0,2) = 13.94	 
x(1,0) = 13.66	 x(1,1) = 9.66	 x(1,2) = 16.66	 
x(2,0) = 23.00	 x(2,1) = 2.54	 x(2,2) = 11.40	 
y(0,1,0) = 0.00	 y(1,0,0) = 1.00	 
y(0,2,0) = 0.00	 y(2,0,0) = 1.00	 
y(1,2,0) = 1.00	 y(2,1,0) = 0.00	 
y(0,1,1) = 0.83	 y(1,0,1) = 0.17	 
y(0,2,1) = 0.38	 y(2,0,1) = 0.62	 
y(1,2,1) = 0.32	 y(2,1,1) = 0.68	 
y(0,1,2) = 0.43	 y(1,0,2) = 0.57	 
y(0,2,2) = 0.19	 y(2,0,2) = 0.81	 
y(1,2,2) = 0.07	 y(2,1,2) = 0.93	 
obj:  1.0
erro
[(1, 2), (0, 1), (0, 0), (0, 2), (2, 1), (2, 2), (1, 0), (1, 1)]
cliques:  0 mip: 37
C:  25.999992287744842
x(0,0) = 25.00	 x(0,1) = 6.94	 x(0,2) = 13.94	 
x(1,0) = 13.66	 x(1,1) = 9.66	 x(1,2) = 16.66	 
x(2,0) = 23.00	 x(2,1) = 2.54	 x(2,2) = 11.40	 
y(0,1,0) = 0.00	 y(1,0,0) = 1.00	 
y(0,2,0) = 0.00	 y(2,0,0) = 1.00	 
y(1,2,0) = 1.00	 y(2,1,0) = 0.00	 
y(0,1,1) = 0.83	 y(1,0,1) = 0.17	 
y(0,2,1) = 0.38	 y(2,0,1) = 0.62	 
y(1,2,1) = 0.32	 y(2,1,1) = 0.68	 
y(0,1,2) = 0.43	 y(1,0,2) = 0.57	 
y(0,2,2) = 0.19	 y(2,0,2) = 0.81	 
y(1,2,2) = 0.07	 y(2,1,2) = 0.93	 
obj:  1.0
erro
[(1, 2), (0, 1), (0, 0), (0, 2), (2, 1), (2, 2), (1, 0), (1, 1)]
cliques:  0 mip: 37
C:  25.999992287744842
x(0,0) = 25.00	 x(0,1) = 6.94	 x(0,2) = 13.94	 
x(1,0) = 13.66	 x(1,1) = 9.66	 x(1,2) = 16.66	 
x(2,0) = 23.00	 x(2,1) = 2.54	 x(2,2) = 11.40	 
y(0,1,0) = 0.00	 y(1,0,0) = 1.00	 
y(0,2,0) = 0.00	 y(2,0,0) = 1.00	 
y(1,2,0) = 1.00	 y(2,1,0) = 0.00	 
y(0,1,1) = 0.83	 y(1,0,1) = 0.17	 
y(0,2,1) = 0.38	 y(2,0,1) = 0.62	 
y(1,2,1) = 0.32	 y(2,1,1) = 0.68	 
y(0,1,2) = 0.43	 y(1,0,2) = 0.57	 
y(0,2,2) = 0.19	 y(2,0,2) = 0.81	 
y(1,2,2) = 0.07	 y(2,1,2) = 0.93	 
obj:  1.0
erro
[(1, 2), (0, 1), (0, 0), (0, 2), (2, 1), (2, 2), (1, 0), (1, 1)]
cliques:  0 mip: 37
C:  25.999992287744842
x(0,0) = 25.00	 x(0,1) = 6.94	 x(0,2) = 13.94	 
x(1,0) = 13.66	 x(1,1) = 9.66	 x(1,2) = 16.66	 
x(2,0) = 23.00	 x(2,1) = 2.54	 x(2,2) = 11.40	 
y(0,1,0) = 0.00	 y(1,0,0) = 1.00	 
y(0,2,0) = 0.00	 y(2,0,0) = 1.00	 
y(1,2,0) = 1.00	 y(2,1,0) = 0.00	 
y(0,1,1) = 0.83	 y(1,0,1) = 0.17	 
y(0,2,1) = 0.38	 y(2,0,1) = 0.62	 
y(1,2,1) = 0.32	 y(2,1,1) = 0.68	 
y(0,1,2) = 0.43	 y(1,0,2) = 0.57	 
y(0,2,2) = 0.19	 y(2,0,2) = 0.81	 
y(1,2,2) = 0.07	 y(2,1,2) = 0.93	 
obj:  1.0
erro
[(1, 2), (0, 1), (0, 0), (0, 2), (2, 1), (2, 2), (1, 0), (1, 1)]
cliques:  0 mip: 0
iterações: 29 cortes cliques encontrados: 3 mip: 1013 objective:  25.999992287744842
Coin0506I Presolve 65 (-61) rows, 39 (-25) columns and 202 (-86) elements
Clp1000I sum of infeasibilities 3.24924e-06 - average 4.99884e-08, 0 fixed columns
Coin0506I Presolve 65 (0) rows, 39 (0) columns and 202 (0) elements
Clp0029I End of values pass after 39 iterations
Clp0000I Optimal - objective value 15
Clp0000I Optimal - objective value 15
Coin0511I After Postsolve, objective 15, infeasibilities - dual 0 (0), primal 0 (0)
Clp0000I Optimal - objective value 15
Clp0000I Optimal - objective value 15
Clp0000I Optimal - objective value 15
Coin0511I After Postsolve, objective 15, infeasibilities - dual 0 (0), primal 0 (0)
Clp0032I Optimal objective 15 - 0 iterations time 0.012, Presolve 0.00, Idiot 0.01
Coin3009W Conflict graph built in 0.000 seconds, density: 0.178%
